(set-info :source |printed by MathSAT|)
(declare-fun |.x{147}| () Int)
(declare-fun |.y{12}| () Int)
(declare-fun |.x{143}| () Int)
(declare-fun |.y{13}| () Int)
(declare-fun |.x{144}| () (Array Int Int))
(declare-fun |.y{14}| () (Array Int Int))
(declare-fun |.x{142}| () Int)
(declare-fun |.y{15}| () Int)
(declare-fun |.x{139}| () Int)
(declare-fun |.y{16}| () Int)
(declare-fun |.y{9}| () Int)
(declare-fun |.y{17}| () Int)
(declare-fun |.y{10}| () (Array Int Int))
(declare-fun |.y{18}| () (Array Int Int))
(declare-fun |.y{11}| () Int)
(declare-fun |.y{19}| () Int)
(declare-fun |.loc{4}| () Bool)
(declare-fun |.loc{7}| () Bool)
(declare-fun |.loc{5}| () Bool)
(declare-fun |.loc{8}| () Bool)
(declare-fun |.loc{6}| () Bool)
(declare-fun |.loc{9}| () Bool)
(declare-fun |.x{80}| () Int)
(declare-fun |.x{150}| () Int)
(declare-fun |.x{145}| () Int)
(define-fun .def_24 () Bool (! |.loc{4}| :next |.loc{7}|))
(define-fun .def_87 () Bool (not .def_24))
(define-fun .def_26 () Bool (! |.loc{5}| :next |.loc{8}|))
(define-fun .def_35 () Bool (not .def_26))
(define-fun .def_226 () Bool (and .def_35 .def_87))
(define-fun .def_28 () Bool (! |.loc{6}| :next |.loc{9}|))
(define-fun .def_224 () Bool (not .def_28))
(define-fun .def_227 () Bool (! (and .def_224 .def_226) :init true))
(define-fun .def_12 () (Array Int Int) (! |.x{144}| :next |.y{14}|))
(define-fun .def_115 () Int (select .def_12 |.x{145}|))
(define-fun .def_209 () Bool (= |.x{150}| .def_115))
(define-fun .def_210 () Bool (not .def_209))
(define-fun .def_94 () Int (* (- 1) |.x{150}|))
(define-fun .def_8 () Int (! |.x{147}| :next |.y{12}|))
(define-fun .def_205 () Int (+ .def_8 .def_94))
(define-fun .def_206 () Bool (= .def_205 (- 42)))
(define-fun .def_10 () Int (! |.x{143}| :next |.y{13}|))
(define-fun .def_167 () Bool (<= .def_10 0))
(define-fun .def_170 () Bool (not .def_167))
(define-fun .def_143 () Bool (<= |.x{145}| 0))
(define-fun .def_144 () Bool (not .def_143))
(define-fun .def_168 () Bool (or .def_144 .def_167))
(define-fun .def_203 () Bool (and .def_168 .def_170))
(define-fun .def_204 () Bool (and .def_24 .def_203))
(define-fun .def_207 () Bool (and .def_204 .def_206))
(define-fun .def_208 () Bool (and .def_206 .def_207))
(define-fun .def_211 () Bool (and .def_208 .def_210))
(define-fun .def_134 () Int (* (- 1) |.x{145}|))
(define-fun .def_14 () Int (! |.x{142}| :next |.y{15}|))
(define-fun .def_137 () Int (+ .def_14 .def_134))
(define-fun .def_181 () Int (+ .def_10 .def_137))
(define-fun .def_182 () Bool (= .def_181 0))
(define-fun .def_212 () Bool (and .def_182 .def_211))
(define-fun .def_16 () Int (! |.x{139}| :next |.y{16}|))
(define-fun .def_187 () Bool (<= .def_16 .def_14))
(define-fun .def_188 () Bool (not .def_187))
(define-fun .def_213 () Bool (and .def_188 .def_212))
(define-fun .def_214 () Bool (and |.loc{9}| .def_213))
(define-fun .def_147 () Bool (not |.loc{7}|))
(define-fun .def_215 () Bool (and .def_147 .def_214))
(define-fun .def_71 () Bool (not |.loc{8}|))
(define-fun .def_216 () Bool (and .def_71 .def_215))
(define-fun .def_22 () Int (! |.y{11}| :next |.y{19}|))
(define-fun .def_196 () Bool (= |.y{16}| .def_22))
(define-fun .def_20 () (Array Int Int) (! |.y{10}| :next |.y{18}|))
(define-fun .def_194 () Bool (= |.y{14}| .def_20))
(define-fun .def_18 () Int (! |.y{9}| :next |.y{17}|))
(define-fun .def_192 () Bool (= |.y{13}| .def_18))
(define-fun .def_190 () Bool (= |.y{12}| .def_16))
(define-fun .def_126 () Bool (<= .def_22 .def_14))
(define-fun .def_191 () Bool (and .def_126 .def_190))
(define-fun .def_193 () Bool (and .def_191 .def_192))
(define-fun .def_195 () Bool (and .def_193 .def_194))
(define-fun .def_197 () Bool (and .def_195 .def_196))
(define-fun .def_63 () Bool (not |.loc{9}|))
(define-fun .def_198 () Bool (and .def_63 .def_197))
(define-fun .def_199 () Bool (and |.loc{7}| .def_198))
(define-fun .def_200 () Bool (and |.loc{8}| .def_199))
(define-fun .def_201 () Bool (and .def_87 .def_200))
(define-fun .def_162 () Bool (= |.y{15}| 0))
(define-fun .def_202 () Bool (and .def_162 .def_201))
(define-fun .def_217 () Bool (or .def_202 .def_216))
(define-fun .def_175 () Bool (= .def_10 |.y{13}|))
(define-fun .def_116 () Int (* (- 1) .def_115))
(define-fun .def_165 () Int (+ .def_8 .def_116))
(define-fun .def_166 () Bool (= .def_165 (- 42)))
(define-fun .def_169 () Bool (and .def_166 .def_168))
(define-fun .def_171 () Bool (and .def_169 .def_170))
(define-fun .def_172 () Bool (and .def_24 .def_171))
(define-fun .def_107 () Int (* (- 1) |.y{15}|))
(define-fun .def_108 () Int (+ .def_14 .def_107))
(define-fun .def_109 () Bool (= .def_108 (- 1)))
(define-fun .def_173 () Bool (and .def_109 .def_172))
(define-fun .def_39 () Bool (= .def_8 |.y{12}|))
(define-fun .def_174 () Bool (and .def_39 .def_173))
(define-fun .def_176 () Bool (and .def_174 .def_175))
(define-fun .def_124 () Bool (= .def_12 |.y{14}|))
(define-fun .def_177 () Bool (and .def_124 .def_176))
(define-fun .def_61 () Bool (= .def_16 |.y{16}|))
(define-fun .def_178 () Bool (and .def_61 .def_177))
(define-fun .def_183 () Bool (and .def_178 .def_182))
(define-fun .def_184 () Bool (and .def_63 .def_183))
(define-fun .def_185 () Bool (and |.loc{7}| .def_184))
(define-fun .def_186 () Bool (and |.loc{8}| .def_185))
(define-fun .def_189 () Bool (and .def_186 .def_188))
(define-fun .def_218 () Bool (or .def_189 .def_217))
(define-fun .def_219 () Bool (and .def_26 .def_218))
(define-fun .def_158 () Bool (= .def_18 |.y{19}|))
(define-fun .def_155 () Bool (= .def_16 |.y{17}|))
(define-fun .def_153 () Bool (= .def_14 |.y{16}|))
(define-fun .def_36 () Bool (and .def_24 .def_35))
(define-fun .def_34 () Bool (= .def_20 |.y{18}|))
(define-fun .def_37 () Bool (and .def_34 .def_36))
(define-fun .def_150 () Bool (and .def_37 .def_39))
(define-fun .def_46 () Bool (<= .def_18 .def_10))
(define-fun .def_151 () Bool (and .def_46 .def_150))
(define-fun .def_152 () Bool (and .def_124 .def_151))
(define-fun .def_154 () Bool (and .def_152 .def_153))
(define-fun .def_156 () Bool (and .def_154 .def_155))
(define-fun .def_157 () Bool (and .def_63 .def_156))
(define-fun .def_159 () Bool (and .def_157 .def_158))
(define-fun .def_160 () Bool (and |.loc{8}| .def_159))
(define-fun .def_161 () Bool (and .def_147 .def_160))
(define-fun .def_163 () Bool (and .def_161 .def_162))
(define-fun .def_220 () Bool (or .def_163 .def_219))
(define-fun .def_67 () Bool (<= .def_8 0))
(define-fun .def_145 () Bool (or .def_67 .def_144))
(define-fun .def_138 () Int (+ .def_8 .def_137))
(define-fun .def_139 () Bool (= .def_138 0))
(define-fun .def_131 () Bool (= .def_22 |.y{19}|))
(define-fun .def_127 () Bool (not .def_126))
(define-fun .def_54 () Int (* (- 1) |.x{80}|))
(define-fun .def_120 () Int (+ .def_54 .def_115))
(define-fun .def_121 () Int (+ .def_16 .def_120))
(define-fun .def_122 () Bool (= .def_121 0))
(define-fun .def_102 () Bool (<= .def_18 0))
(define-fun .def_111 () Bool (not .def_102))
(define-fun .def_103 () Bool (<= |.x{150}| 0))
(define-fun .def_104 () Bool (not .def_103))
(define-fun .def_105 () Bool (or .def_102 .def_104))
(define-fun .def_99 () (Array Int Int) (store .def_20 |.x{150}| |.x{80}|))
(define-fun .def_100 () Bool (= |.y{18}| .def_99))
(define-fun .def_95 () Int (+ .def_18 .def_94))
(define-fun .def_96 () Int (+ .def_14 .def_95))
(define-fun .def_97 () Bool (= .def_96 0))
(define-fun .def_98 () Bool (and .def_26 .def_97))
(define-fun .def_101 () Bool (and .def_98 .def_100))
(define-fun .def_106 () Bool (and .def_101 .def_105))
(define-fun .def_110 () Bool (and .def_106 .def_109))
(define-fun .def_112 () Bool (and .def_110 .def_111))
(define-fun .def_113 () Bool (and .def_39 .def_112))
(define-fun .def_123 () Bool (and .def_113 .def_122))
(define-fun .def_125 () Bool (and .def_123 .def_124))
(define-fun .def_128 () Bool (and .def_125 .def_127))
(define-fun .def_129 () Bool (and .def_61 .def_128))
(define-fun .def_59 () Bool (= .def_18 |.y{17}|))
(define-fun .def_130 () Bool (and .def_59 .def_129))
(define-fun .def_132 () Bool (and .def_130 .def_131))
(define-fun .def_133 () Bool (and .def_63 .def_132))
(define-fun .def_140 () Bool (and .def_133 .def_139))
(define-fun .def_141 () Bool (and |.loc{8}| .def_140))
(define-fun .def_142 () Bool (and .def_87 .def_141))
(define-fun .def_146 () Bool (and .def_142 .def_145))
(define-fun .def_148 () Bool (and .def_146 .def_147))
(define-fun .def_73 () Bool (not .def_67))
(define-fun .def_149 () Bool (and .def_73 .def_148))
(define-fun .def_221 () Bool (or .def_149 .def_220))
(define-fun .def_89 () Bool (<= |.y{16}| 0))
(define-fun .def_90 () Bool (not .def_89))
(define-fun .def_83 () Bool (<= |.y{17}| 0))
(define-fun .def_84 () Bool (not .def_83))
(define-fun .def_79 () Bool (<= |.y{12}| 0))
(define-fun .def_80 () Bool (not .def_79))
(define-fun .def_77 () Bool (= |.y{13}| 0))
(define-fun .def_78 () Bool (and .def_35 .def_77))
(define-fun .def_81 () Bool (and .def_78 .def_80))
(define-fun .def_82 () Bool (and .def_63 .def_81))
(define-fun .def_85 () Bool (and .def_82 .def_84))
(define-fun .def_86 () Bool (and |.loc{7}| .def_85))
(define-fun .def_88 () Bool (and .def_86 .def_87))
(define-fun .def_91 () Bool (and .def_88 .def_90))
(define-fun .def_92 () Bool (and .def_71 .def_91))
(define-fun .def_222 () Bool (or .def_92 .def_221))
(define-fun .def_75 () Bool (= .def_14 |.y{15}|))
(define-fun .def_65 () Bool (<= |.x{80}| 0))
(define-fun .def_66 () Bool (not .def_65))
(define-fun .def_68 () Bool (or .def_66 .def_67))
(define-fun .def_55 () Int (+ .def_10 .def_54))
(define-fun .def_56 () Int (+ .def_8 .def_55))
(define-fun .def_57 () Bool (= .def_56 0))
(define-fun .def_47 () Bool (not .def_46))
(define-fun .def_43 () (Array Int Int) (store .def_12 |.x{80}| 42))
(define-fun .def_44 () Bool (= |.y{14}| .def_43))
(define-fun .def_31 () Int (* (- 1) |.y{13}|))
(define-fun .def_32 () Int (+ .def_10 .def_31))
(define-fun .def_33 () Bool (= .def_32 (- 1)))
(define-fun .def_38 () Bool (and .def_33 .def_37))
(define-fun .def_40 () Bool (and .def_38 .def_39))
(define-fun .def_45 () Bool (and .def_40 .def_44))
(define-fun .def_48 () Bool (and .def_45 .def_47))
(define-fun .def_58 () Bool (and .def_48 .def_57))
(define-fun .def_60 () Bool (and .def_58 .def_59))
(define-fun .def_62 () Bool (and .def_60 .def_61))
(define-fun .def_64 () Bool (and .def_62 .def_63))
(define-fun .def_69 () Bool (and .def_64 .def_68))
(define-fun .def_70 () Bool (and |.loc{7}| .def_69))
(define-fun .def_72 () Bool (and .def_70 .def_71))
(define-fun .def_74 () Bool (and .def_72 .def_73))
(define-fun .def_76 () Bool (and .def_74 .def_75))
(define-fun .def_223 () Bool (or .def_76 .def_222))
(define-fun .def_225 () Bool (! (and .def_223 .def_224) :trans true))
(define-fun .def_228 () Bool (and .def_28 .def_226))
(define-fun .def_229 () Bool (! (not .def_228) :invar-property 0))
(assert true)
